--Link1--
%mem=256MW
%NProcShared=4
%LindaWorker=localhost
%chk=HX2_solv.chk
# b3lyp/6-31++g(d,p) opt=(calcfc,tight) int=ultrafine scrf=solvent=water
# SCF=tight nosymm test


0   1
O    1.2109   -1.3725    0.3234
O    3.5290    0.0580   -0.2387
C   -0.1704    0.6132    0.1541
C   -1.4183   -0.1796   -0.2492
C    1.1315   -0.0764   -0.2688
C   -2.6945    0.5197    0.2212
C    2.3465    0.7189    0.1993
C   -3.9347   -0.2813   -0.1413
H   -0.2144    1.6173   -0.2847
H   -0.1768    0.7315    1.2454
H   -1.4410   -0.2978   -1.3393
H   -1.3782   -1.1857    0.1845
H    1.1585   -0.2126   -1.3559
H   -2.6643    0.6596    1.3080
H   -2.7620    1.5152   -0.2327
H    2.3389    1.7317   -0.2152
H    2.3836    0.7728    1.2925
H   -3.9138   -1.2707    0.3268
H   -4.8350    0.2379    0.2022
H   -4.0122   -0.4151   -1.2250
H    2.0498   -1.7731    0.0378
H    4.2829    0.5866    0.0742

--Link1--
%mem=256MW
%NProcShared=4
%LindaWorker=localhost
%chk=HX2_solv.chk
# b3lyp/6-31++g(d,p) freq scrf=solvent=water
# geom=allcheck guess=read
# SCF=tight nosymm test
# pop=MK iop(6/33=2,6/41=10,6/42=10,7/33=1)

