--Link1--
%mem=256MW
%NProcShared=4
%LindaWorker=localhost
%chk=PD2_solv.chk
# b3lyp/6-31++g(d,p) opt=(calcfc,tight) int=ultrafine scrf=solvent=water
# SCF=tight nosymm test


0   1
C    0.7574    2.3577    1.7757
O    0.8138    2.1942    3.1661
C    2.1035    2.0898    1.0583
C    2.4814    0.6136    1.1161
O    3.1259    2.9305    1.5443
H    0.0000    1.6174    1.4645
H    0.3763    3.3651    1.5203
H    1.3278    2.9122    3.5144
H    2.0174    2.4273    0.0000
H    2.5607    0.2506    2.1502
H    1.7252    0.0000    0.6106
H    3.4443    0.4249    0.6241
H    3.4190    2.5732    2.3740

--Link1--
%mem=256MW
%NProcShared=4
%LindaWorker=localhost
%chk=PD2_solv.chk
# b3lyp/6-31++g(d,p) freq scrf=solvent=water
# geom=allcheck guess=read
# SCF=tight nosymm test
# pop=MK iop(6/33=2,6/41=10,6/42=10,7/33=1)

