--Link1--
%mem=256MW
%NProcShared=4
%LindaWorker=localhost
%chk=SAC_solv.chk
# b3lyp/6-31++g(d,p) opt=(calcfc,tight) int=ultrafine scrf=solvent=water
# SCF=tight nosymm test


0   1
O    1.2089    2.5917    0.0000
O    1.9402   -2.1416    0.0011
O    2.9501    0.4378    0.0005
O   -3.2982    0.7450    0.0027
O   -3.1453   -1.5229   -0.0006
C    0.7292    1.3167   -0.0001
C    1.0978   -1.0709   -0.0003
C   -1.1543   -0.1962   -0.0015
C    1.6027    0.2293    0.0002
C   -0.6494    1.1040   -0.0008
C   -0.2808   -1.2837   -0.0012
C   -2.5914   -0.4185   -0.0002
C    0.2481    3.6457   -0.0003
C    1.3425   -3.4365    0.0004
H   -1.3505    1.9293   -0.0009
H   -0.7235   -2.2739   -0.0011
H    3.1122    1.3973    0.0008
H   -0.3601    3.6397    0.9108
H   -0.3593    3.6399   -0.9119
H    0.8062    4.5880    0.0000
H    0.7607   -3.6128   -0.9108
H    0.7591   -3.6130    0.9105
H    2.1583   -4.1671    0.0011
H   -4.2660    0.5841    0.0041

--Link1--
%mem=256MW
%NProcShared=4
%LindaWorker=localhost
%chk=SAC_solv.chk
# b3lyp/6-31++g(d,p) freq scrf=solvent=water
# geom=allcheck guess=read
# SCF=tight nosymm test
# pop=MK iop(6/33=2,6/41=10,6/42=10,7/33=1)

